1641196800
1641214800
1641283200
1641301200
1641369600
1641387600
1641456000
1641474000
1641542400
1641549600
1641553200
1641564000
1641888000
1641906000
1641974400
1641992400
1642060800
1642078800
1642147200
1642165200
1642406400
1642424400
1642492800
1642510800
1642579200
1642597200
1642665600
1642683600
1642752000
1642759200
1642762800
1642773600
1643011200
1643029200
1643097600
1643115600
1643184000
1643202000
1643270400
1643288400
1643356800
1643364000
1643367600
1643378400
1643616000
1643634000
